45
2 0 1
3 0 4
3 1 5
4 0 1
4 1 2
4 3 4
5 4 2
6 0 4
6 2 3
7 0 2
7 1 4
7 2 2
7 3 1
7 4 1
7 5 4
8 0 4
8 6 4
9 0 3
9 1 5
9 2 2
9 3 1
9 5 3
9 7 1
9 8 1
10 0 5
10 1 2
10 3 1
10 4 3
10 5 5
10 6 4
11 3 5
11 4 3
11 5 4
11 6 4
11 7 3
11 8 1
12 4 3
12 5 2
12 6 4
12 9 1
12 10 2
12 11 3
13 0 4
13 1 3
13 2 5
13 8 1
13 9 1
13 10 2
13 11 4
14 2 3
14 6 2
14 10 2
15 1 5
15 2 2
15 3 1
15 4 5
15 7 4
15 8 3
15 10 1
15 11 1
15 13 4
15 14 5
16 2 4
16 4 3
16 5 5
16 6 2
16 8 4
16 10 1
16 11 5
16 15 3
17 0 1
17 1 4
17 2 1
17 7 2
17 9 4
17 11 5
17 15 1
18 1 5
18 4 3
18 6 5
18 8 5
18 10 2
18 14 3
18 16 1
19 0 2
19 3 3
19 4 2
19 5 3
19 8 3
19 10 4
19 15 3
19 18 2
20 1 3
20 2 1
20 7 2
20 8 4
20 11 1
20 12 4
20 13 4
20 14 1
20 16 4
20 19 4
21 0 5
21 1 4
21 2 3
21 5 4
21 6 4
21 9 5
21 11 4
21 16 3
21 17 1
22 0 5
22 2 1
22 4 3
22 5 4
22 7 3
22 8 1
22 10 4
22 11 3
22 16 5
22 19 4
22 21 5
23 6 2
23 9 1
23 10 1
23 15 1
23 17 4
23 19 3
23 20 3
23 21 3
24 1 3
24 4 1
24 5 3
24 6 2
24 8 1
24 9 1
24 11 2
24 13 2
24 15 3
24 17 5
24 18 5
24 19 3
24 20 3
24 22 5
25 0 5
25 5 2
25 11 4
25 12 5
25 13 5
25 15 2
25 19 1
25 20 2
25 24 2
26 1 5
26 3 3
26 5 4
26 7 3
26 8 1
26 9 2
26 10 2
26 11 1
26 13 2
26 15 4
26 16 5
26 20 1
26 21 5
26 22 2
26 23 5
26 25 2
27 0 3
27 1 4
27 2 3
27 3 5
27 4 4
27 5 3
27 6 3
27 8 4
27 12 3
27 15 1
27 16 1
27 17 5
27 18 5
27 22 5
27 23 5
28 0 3
28 1 4
28 5 4
28 8 5
28 10 5
28 11 2
28 13 5
28 15 1
28 17 5
28 21 5
28 22 5
28 23 3
28 24 3
28 26 4
28 27 3
29 3 2
29 5 5
29 6 5
29 7 5
29 8 1
29 12 3
29 14 4
29 16 4
29 17 2
29 19 1
29 21 3
29 23 2
29 25 4
29 26 1
29 27 5
30 0 4
30 1 4
30 4 5
30 8 5
30 10 1
30 12 3
30 13 1
30 14 4
30 18 3
30 19 3
30 20 5
30 23 1
30 24 1
30 26 3
30 27 2
31 3 5
31 4 2
31 5 5
31 7 3
31 8 4
31 12 4
31 13 5
31 14 2
31 17 5
31 18 2
31 19 3
31 21 3
31 22 1
31 23 4
31 24 4
31 25 2
31 27 5
31 28 3
32 0 5
32 4 3
32 5 3
32 6 1
32 7 3
32 8 4
32 13 4
32 14 4
32 15 1
32 17 1
32 18 2
32 22 4
32 28 5
32 30 4
33 5 2
33 7 2
33 8 5
33 10 5
33 11 3
33 14 3
33 15 5
33 17 4
33 21 3
33 22 1
33 25 1
33 26 3
33 28 5
33 29 4
33 30 5
33 31 4
33 32 5
34 0 2
34 1 2
34 3 3
34 4 2
34 6 4
34 7 5
34 10 3
34 11 1
34 12 1
34 14 5
34 15 2
34 16 5
34 18 2
34 19 3
34 20 2
34 21 5
34 22 2
34 23 5
34 24 1
34 27 1
34 28 4
34 30 4
34 31 4
34 33 4
35 1 4
35 2 5
35 3 1
35 4 5
35 6 1
35 7 3
35 11 2
35 16 2
35 18 3
35 19 4
35 21 5
35 22 2
35 27 4
35 29 1
35 31 3
35 32 2
35 33 4
35 34 3
36 0 1
36 1 2
36 4 2
36 6 1
36 8 2
36 9 3
36 10 4
36 13 4
36 16 2
36 17 1
36 20 4
36 21 3
36 22 4
36 24 2
36 25 1
36 26 2
36 27 4
36 30 5
36 31 1
36 34 4
36 35 2
37 1 1
37 3 4
37 7 1
37 8 5
37 9 5
37 11 5
37 12 5
37 13 2
37 14 2
37 15 4
37 17 2
37 19 1
37 24 3
37 25 3
37 26 1
37 27 3
37 29 5
37 30 4
37 31 1
37 33 5
37 34 2
38 1 1
38 2 3
38 4 2
38 5 5
38 7 3
38 10 3
38 12 4
38 16 3
38 19 4
38 20 5
38 21 5
38 24 2
38 25 3
38 26 1
38 27 2
38 28 2
38 31 4
38 33 3
38 34 3
38 36 5
38 37 4
39 0 2
39 1 4
39 2 1
39 5 5
39 9 2
39 10 4
39 11 2
39 14 3
39 15 4
39 17 3
39 18 2
39 21 2
39 22 2
39 25 2
39 26 1
39 28 1
39 29 2
39 30 3
39 32 3
39 34 1
39 36 1
39 37 2
39 38 3
40 0 3
40 3 5
40 4 1
40 6 2
40 8 5
40 10 5
40 11 2
40 12 4
40 13 5
40 14 1
40 16 3
40 17 2
40 19 4
40 21 4
40 22 5
40 23 5
40 24 5
40 26 2
40 30 1
40 32 5
40 33 5
40 36 5
40 37 4
41 0 2
41 1 5
41 2 1
41 6 2
41 20 4
41 22 2
41 23 4
41 28 5
41 30 3
41 31 1
41 32 3
41 33 4
41 34 2
41 35 3
41 36 4
41 37 1
41 40 4
42 2 4
42 3 2
42 5 2
42 6 4
42 7 4
42 8 2
42 9 3
42 11 4
42 13 5
42 17 5
42 18 2
42 19 2
42 20 3
42 21 2
42 25 2
42 27 3
42 28 3
42 31 5
42 35 5
42 36 2
42 37 3
42 39 5
43 0 5
43 2 5
43 4 2
43 5 5
43 6 2
43 8 1
43 10 2
43 11 5
43 14 1
43 15 1
43 17 3
43 18 3
43 21 4
43 22 3
43 25 5
43 28 1
43 30 4
43 33 5
43 34 1
43 37 2
43 39 3
43 40 2
43 41 1
44 1 3
44 4 2
44 5 5
44 7 4
44 8 5
44 9 1
44 12 1
44 15 4
44 16 2
44 21 2
44 22 2
44 23 2
44 30 5
44 31 2
44 32 4
44 33 5
44 34 3
44 35 2
44 40 4
44 41 3
